NAME : ClusterId_241 
COMMENT : (Gillet and Johnson) 
TYPE : CVRP 
DIMENSION : 20 
EDGE_WEIGHT_TYPE : EUC_2D 
CAPACITY : 60 
NODE_COORD_SECTION 
241 0 0 
14 20 -20 
16 20 20 
15 20 0 
6 10 -10 
8 10 10 
7 10 0 
12 0 -20 
13 0 20 
4 0 -10 
5 0 10 
20 0 -30 
36 0 -50 
28 0 -40 
1 -10 -10 
3 -10 10 
2 -10 0 
9 -20 -20 
11 -20 20 
10 -20 0 
DEMAND_SECTION 
241 2590
14 8
16 8
15 8
6 12
8 12
7 12
12 8
13 8
4 12
5 12
20 4
36 1
28 2
1 12
3 12
2 12
9 8
11 8
10 8
DEPOT_SECTION 
241
 -1
EOF